n_machines = 5;
n_resources = 6;
n_jobs = 120;
horizon = 58021;
LB = 11610;
n_jobs_per_resource = [20, 20, 20, 20, 20, 20];
duration = [79, 721, 504, 173, 589, 90, 191, 454, 423, 761, 116, 571, 578, 227, 562, 808, 969, 64, 65, 184, 444, 689, 27, 844, 984, 728, 83, 962, 699, 208, 250, 418, 218, 722, 695, 652, 137, 313, 971, 605, 582, 310, 158, 505, 98, 269, 105, 234, 629, 232, 969, 294, 957, 218, 12, 391, 938, 859, 868, 124, 698, 898, 13, 524, 756, 458, 589, 410, 963, 683, 591, 157, 793, 713, 355, 831, 189, 850, 774, 301, 938, 600, 489, 597, 350, 542, 784, 699, 164, 808, 642, 287, 902, 347, 880, 16, 866, 819, 36, 844, 63, 507, 696, 743, 349, 87, 231, 432, 247, 230, 916, 484, 238, 363, 37, 210, 267, 307, 91, 837]